datasets/2-dimensional/CL_07_25_06.vbp
2
150 150 
25
79 71 30
43 36 72
53 56 4
45 47 88
65 58 54
23 30 64
97 99 90
91 95 26
77 78 94
73 67 28
42 48 72
56 63 49
53 50 54
77 76 19
40 44 28
38 29 61
38 41 84
28 20 23
28 24 67
82 81 53
21 13 54
23 15 16
52 58 9
99 101 54
22 22 77
