datasets/2-dimensional/CL_07_25_06.txt
150 150 
0 30 79 71 
1 72 43 36 
2 4 53 56 
3 88 45 47 
4 54 65 58 
5 64 23 30 
6 90 97 99 
7 26 91 95 
8 94 77 78 
9 28 73 67 
10 72 42 48 
11 49 56 63 
12 54 53 50 
13 19 77 76 
14 28 40 44 
15 61 38 29 
16 84 38 41 
17 23 28 20 
18 67 28 24 
19 53 82 81 
20 54 21 13 
21 16 23 15 
22 9 52 58 
23 54 99 101 
24 77 22 22 
